543 5
10 10 10 10 10 

0 0 0 0 0 0 5 2 14 26 38 50 
0 0 0 0 0 0 2 3 4 
3 0 0 0 1 0 5 12 8 7 6 5 
5 0 0 0 3 0 4 9 7 6 5 
7 0 0 0 3 0 2 11 10 
5 0 0 0 4 0 3 11 10 97 
7 0 0 0 2 0 1 10 
6 0 0 0 4 0 1 11 
9 0 0 0 3 0 1 10 
6 0 0 0 1 0 1 13 
7 0 0 0 3 0 1 13 
2 0 0 0 1 0 1 13 
0 0 0 0 0 0 1 62 
0 0 0 0 0 0 7 15 19 20 21 22 23 24 
9 1 0 0 0 0 2 18 16 
9 3 0 0 0 0 1 17 
9 4 0 0 0 0 1 25 
8 3 0 0 0 0 1 25 
9 5 0 0 0 0 2 25 262 
6 1 0 0 0 0 1 25 
2 1 0 0 0 0 1 25 
3 2 0 0 0 0 1 25 
2 3 0 0 0 0 1 25 
7 2 0 0 0 0 1 25 
0 0 0 0 0 0 1 62 
0 0 0 0 0 0 5 27 29 30 31 33 
1 1 0 0 0 0 2 32 28 
9 1 0 0 0 0 3 36 35 34 
1 1 0 0 0 0 3 36 35 34 
4 2 0 0 0 0 2 35 32 
7 3 0 0 0 0 1 32 
3 2 0 0 0 0 2 34 340 
6 2 0 0 0 0 1 34 
8 5 0 0 0 0 1 37 
1 6 0 0 0 0 1 37 
1 2 0 0 0 0 1 37 
0 0 0 0 0 0 1 62 
0 0 0 0 0 0 2 39 40 
4 0 0 0 1 0 5 46 45 44 42 41 
8 0 0 0 1 0 4 44 43 42 41 
8 0 0 0 3 0 2 48 47 
3 0 0 0 3 0 2 48 47 
1 0 0 0 1 0 2 48 47 
9 0 0 0 3 0 1 47 
6 0 0 0 3 0 2 48 446 
1 0 0 0 4 0 1 47 
7 0 0 0 3 0 1 49 
6 0 0 0 3 0 1 49 
0 0 0 0 0 0 1 62 
0 0 0 0 0 0 3 51 52 53 
2 0 0 0 0 1 3 56 55 54 
2 0 0 0 0 3 3 56 55 54 
6 0 0 0 0 5 2 60 56 
4 0 0 0 0 2 4 60 59 58 57 
10 0 0 0 0 3 5 60 59 58 57 337 
3 0 0 0 0 2 3 59 58 57 
8 0 0 0 0 3 1 61 
9 0 0 0 0 2 1 61 
8 0 0 0 0 1 1 61 
4 0 0 0 0 3 1 61 
0 0 0 0 0 0 1 62 
0 0 0 0 0 0 5 63 75 117 159 201 
0 0 0 0 0 0 4 64 65 66 68 
9 0 1 0 0 0 4 73 71 69 67 
1 0 2 0 0 0 3 72 71 69 
8 0 3 0 0 0 2 67 141 
10 0 2 0 0 0 1 70 
7 0 3 0 0 0 1 69 
3 0 4 0 0 0 1 74 
10 0 4 0 0 0 1 74 
7 0 1 0 0 0 1 74 
3 0 3 0 0 0 1 74 
2 0 2 0 0 0 1 74 
0 0 0 0 0 0 5 243 255 287 319 351 
0 0 0 0 0 0 6 76 80 81 84 88 96 
8 0 1 1 1 1 3 83 79 77 
10 0 3 2 3 5 4 98 91 85 78 
7 0 3 1 1 1 8 115 108 105 104 97 92 89 82 
5 0 2 3 1 2 9 115 105 104 101 99 92 90 89 87 
9 0 2 2 2 1 3 101 97 83 
4 0 2 1 5 2 6 108 105 104 100 93 86 
10 0 5 3 2 4 6 113 101 100 99 93 86 
7 0 2 4 1 3 5 103 99 98 91 89 
7 0 3 1 2 3 5 108 104 97 91 90 
1 0 3 2 8 4 5 113 108 107 100 90 
9 0 2 2 2 1 2 107 90 
9 0 2 1 2 1 2 113 91 
5 0 4 4 3 2 2 105 94 
1 0 2 1 2 2 3 114 113 95 
3 0 2 2 2 1 2 114 94 
8 0 3 4 5 1 2 107 94 
3 0 2 1 1 4 2 113 94 
1 0 3 5 2 2 2 114 95 
6 0 3 4 2 1 1 95 
5 0 4 2 3 5 3 110 106 102 
6 0 3 3 2 2 2 108 100 
3 0 3 2 3 2 4 112 110 109 106 
4 0 6 3 4 2 3 112 109 105 
7 0 2 3 2 3 3 114 111 110 
7 0 3 2 1 2 1 103 
1 0 3 1 1 2 1 103 
9 0 5 2 3 2 2 112 109 
9 0 2 4 2 3 2 114 110 
3 0 1 1 2 2 2 113 109 
9 0 2 4 2 4 1 107 
4 0 1 7 1 4 1 111 
4 0 1 2 3 2 1 111 
3 0 1 4 4 2 1 109 
1 0 3 3 2 4 1 116 
7 0 2 2 3 3 1 116 
7 0 1 3 5 4 1 116 
3 0 3 2 3 1 1 116 
7 0 1 1 2 2 1 116 
3 0 1 2 2 5 1 116 
1 0 3 3 3 3 1 116 
0 0 0 0 0 0 1 543 
0 0 0 0 0 0 5 118 121 123 124 128 
4 1 1 1 1 0 3 126 122 119 
8 3 1 2 1 0 2 132 120 
10 2 5 2 1 0 7 157 143 135 134 131 127 125 
2 2 2 3 5 0 6 157 143 135 134 131 125 
3 3 2 2 2 0 10 157 146 143 140 137 136 135 133 131 130 
1 3 2 2 2 0 8 146 145 144 142 138 137 129 126 
9 3 2 7 2 0 5 146 138 131 130 127 
3 1 2 2 3 0 8 146 145 144 142 140 138 137 129 
6 2 1 3 2 0 4 140 135 134 132 
3 4 2 5 2 0 4 145 144 142 136 
7 2 3 2 1 0 4 147 143 142 135 
7 2 4 1 1 0 3 151 150 136 
7 2 2 2 4 0 2 151 134 
4 4 1 2 1 0 3 156 144 139 
9 3 4 3 3 0 3 147 143 141 
5 3 3 3 2 0 3 149 145 142 
8 2 2 2 1 0 3 156 150 139 
10 3 3 4 5 0 3 156 151 139 
5 2 2 1 5 0 2 156 139 
6 4 2 1 2 0 2 156 139 
7 4 2 2 3 0 2 150 141 
4 2 1 3 2 0 1 141 
5 3 3 4 4 0 5 156 155 154 153 150 
5 3 3 1 3 0 3 155 149 148 
5 3 3 4 2 0 3 156 150 148 
1 3 3 2 6 0 3 150 149 148 
7 1 2 3 1 0 3 153 151 149 
4 4 3 2 1 0 2 153 147 
2 4 3 5 2 0 2 153 147 
9 2 1 1 2 0 3 156 155 152 
7 3 3 1 2 0 2 154 153 
10 2 5 2 4 0 1 152 
8 2 2 3 3 0 1 152 
4 2 5 2 5 0 1 154 
4 3 4 5 3 0 1 158 
3 1 1 1 2 0 1 158 
6 1 3 3 1 0 1 158 
8 1 3 1 3 0 1 158 
5 2 2 3 1 0 1 158 
9 3 2 2 4 0 1 158 
0 0 0 0 0 0 1 543 
0 0 0 0 0 0 3 160 161 165 
3 1 1 1 0 1 4 167 164 163 162 
2 4 3 4 0 2 4 174 171 169 166 
1 4 3 2 0 5 6 186 174 172 171 170 169 
5 2 3 1 0 2 5 181 174 170 169 168 
5 1 1 5 0 4 3 174 169 166 
7 1 3 3 0 1 3 172 169 167 
4 2 2 3 0 1 4 181 175 173 168 
7 2 1 4 0 2 7 186 184 183 181 180 175 174 
9 5 5 2 0 2 5 186 184 182 177 172 
2 1 1 1 0 1 4 184 182 176 173 
2 4 1 6 0 2 7 183 182 180 179 177 176 175 
3 3 2 2 0 2 6 185 182 181 180 179 175 
4 2 3 3 0 4 6 187 183 180 179 178 176 
5 3 2 2 0 4 6 187 183 180 179 178 177 
5 3 3 2 0 2 5 182 179 178 177 176 
10 2 3 1 0 1 3 190 187 178 
1 2 1 2 0 1 3 192 188 185 
3 3 1 2 0 4 3 192 188 185 
1 5 4 5 0 2 3 192 191 189 
2 4 4 2 0 4 3 191 190 189 
7 2 1 1 0 2 3 191 190 189 
3 3 3 1 0 1 3 191 190 189 
3 1 1 4 0 2 2 190 188 
5 4 3 4 0 2 2 192 188 
3 4 2 3 0 4 2 190 188 
10 2 3 3 0 2 4 194 193 191 190 
2 2 5 4 0 1 4 194 193 191 190 
6 2 3 2 0 5 1 188 
9 1 1 2 0 2 2 199 189 
9 2 2 2 0 5 3 198 194 193 
6 2 3 1 0 2 4 198 197 196 195 
8 2 1 1 0 3 4 199 198 196 195 
9 2 1 1 0 2 1 193 
1 2 7 6 0 1 3 197 196 195 
10 3 6 2 0 4 3 197 196 195 
8 2 2 1 0 4 1 200 
7 2 2 2 0 1 1 200 
5 4 2 3 0 2 1 200 
4 2 2 3 0 5 1 200 
9 2 3 1 0 3 1 200 
0 0 0 0 0 0 1 543 
0 0 0 0 0 0 5 202 204 207 208 210 
6 1 1 1 1 0 3 211 206 203 
10 2 3 2 2 0 2 212 205 
4 1 2 2 3 0 5 241 217 213 212 209 
5 1 3 3 3 0 5 241 217 216 213 209 
7 2 5 4 3 0 9 241 230 226 223 220 218 217 216 215 
9 5 4 3 4 0 9 241 230 223 221 220 218 217 214 213 
1 1 2 2 2 0 5 229 223 220 214 211 
6 2 3 2 5 0 8 230 229 224 223 221 220 219 214 
7 1 1 3 6 0 7 229 226 224 223 221 220 216 
4 4 2 3 3 0 3 230 224 212 
8 4 4 3 4 0 4 226 221 219 216 
1 2 3 3 3 0 4 229 228 224 222 
1 3 4 1 2 0 4 231 228 226 222 
2 3 4 3 1 0 3 229 224 221 
4 1 3 1 2 0 4 235 234 231 225 
1 4 1 4 3 0 2 228 222 
7 3 2 3 1 0 2 235 219 
5 1 2 2 1 0 3 240 234 225 
2 3 2 3 3 0 3 240 235 225 
1 3 5 1 3 0 3 240 234 227 
1 3 4 3 2 0 2 240 225 
9 4 2 4 2 0 2 234 225 
5 3 3 1 3 0 4 240 238 234 232 
8 3 1 2 2 0 1 227 
2 1 1 2 5 0 4 240 239 238 234 
10 4 4 1 2 0 3 238 233 232 
5 2 4 2 4 0 3 238 235 233 
4 2 2 1 2 0 2 239 231 
10 5 2 3 2 0 1 231 
4 2 2 2 4 0 4 240 238 237 236 
4 4 3 3 1 0 2 239 236 
1 2 1 3 1 0 2 237 236 
6 1 1 1 4 0 2 237 236 
2 1 2 5 1 0 1 239 
7 3 4 2 2 0 1 242 
10 4 1 3 1 0 1 242 
9 1 4 2 2 0 1 242 
2 1 1 4 1 0 1 242 
4 3 1 3 2 0 1 242 
1 4 1 4 2 0 1 242 
0 0 0 0 0 0 1 543 
0 0 0 0 0 0 6 244 245 246 251 252 253 
3 0 0 1 0 0 2 248 247 
2 0 0 1 0 0 1 247 
10 0 0 3 0 0 1 247 
9 0 0 3 0 0 2 250 249 
8 0 0 1 0 0 1 249 
10 0 0 5 0 0 1 254 
3 0 0 3 0 0 1 254 
6 0 0 4 0 0 1 254 
4 0 0 1 0 0 1 254 
8 0 0 3 0 0 1 254 
0 0 0 0 0 0 5 383 405 427 449 471 
0 0 0 0 0 0 8 256 259 261 263 265 283 284 285 
6 0 1 1 0 1 4 277 269 258 257 
9 0 4 1 0 3 3 276 270 260 
4 0 4 5 0 2 4 280 279 272 262 
10 0 2 1 0 4 4 282 278 272 262 
2 0 4 2 0 2 2 272 262 
8 0 1 3 0 2 5 278 277 273 272 266 
4 0 3 1 0 1 3 273 268 264 
9 0 2 3 0 3 5 281 278 275 272 269 
1 0 2 3 0 1 1 266 
10 0 3 3 0 3 2 279 277 
3 0 2 6 0 2 1 267 
4 0 1 3 0 4 1 271 
8 0 3 3 0 3 1 274 
5 0 2 3 0 3 1 276 
6 0 2 1 0 4 1 275 
6 0 5 2 0 1 1 286 
3 0 1 1 0 2 1 286 
2 0 4 1 0 2 1 286 
3 0 3 2 0 3 1 286 
3 0 1 2 0 1 1 286 
10 0 2 2 0 1 1 286 
7 0 4 2 0 1 1 286 
2 0 1 2 0 4 1 286 
4 0 6 4 0 1 1 286 
9 0 1 1 0 3 1 286 
8 0 2 6 0 2 1 286 
8 0 1 2 0 8 1 286 
1 0 3 3 0 3 1 286 
4 0 1 2 0 4 1 286 
4 0 4 4 0 1 1 286 
0 0 0 0 0 0 1 543 
0 0 0 0 0 0 7 288 290 293 294 297 316 317 
10 0 0 1 1 1 4 309 301 291 289 
2 0 0 2 5 1 3 308 302 292 
9 0 0 2 1 2 5 315 314 310 304 295 
7 0 0 1 2 1 4 312 311 304 295 
8 0 0 2 1 2 2 304 295 
10 0 0 2 2 4 6 313 310 307 304 303 301 
7 0 0 2 2 4 5 310 309 305 304 298 
8 0 0 4 1 3 3 305 300 296 
5 0 0 2 5 2 1 298 
1 0 0 2 3 1 2 311 309 
2 0 0 2 2 2 1 299 
6 0 0 2 3 3 1 303 
2 0 0 3 2 2 1 306 
10 0 0 2 3 2 1 308 
3 0 0 5 3 2 1 307 
3 0 0 1 4 4 1 318 
5 0 0 3 1 1 1 318 
2 0 0 2 4 5 1 318 
4 0 0 6 2 3 1 318 
4 0 0 3 3 4 1 318 
6 0 0 4 2 2 1 318 
7 0 0 1 2 3 1 318 
9 0 0 6 3 3 1 318 
9 0 0 4 2 2 1 318 
6 0 0 1 3 1 1 318 
2 0 0 4 4 3 1 318 
1 0 0 2 3 5 1 318 
7 0 0 1 2 4 1 318 
7 0 0 1 3 2 1 318 
10 0 0 2 1 1 1 318 
0 0 0 0 0 0 1 543 
0 0 0 0 0 0 6 320 321 322 323 324 325 
5 0 0 1 1 1 3 328 327 326 
2 0 0 5 4 2 3 335 328 326 
5 0 0 2 3 4 3 335 328 326 
5 0 0 3 5 1 4 333 332 331 327 
7 0 0 4 3 5 3 333 327 326 
7 0 0 3 3 1 3 332 331 327 
4 0 0 2 1 3 5 336 334 331 330 329 
6 0 0 2 1 2 5 336 335 334 330 329 
6 0 0 2 2 3 3 333 332 329 
2 0 0 4 2 2 3 339 338 337 
3 0 0 3 2 3 3 339 338 337 
7 0 0 2 2 3 3 339 338 337 
3 0 0 4 3 3 3 339 338 337 
7 0 0 5 3 1 3 339 338 337 
9 0 0 1 1 3 2 338 337 
6 0 0 2 2 3 2 340 339 
6 0 0 4 1 1 1 337 
1 0 0 2 2 3 3 345 341 340 
3 0 0 1 3 2 4 349 345 343 340 
6 0 0 1 1 1 3 345 342 341 
8 0 0 1 2 2 2 344 342 
8 0 0 1 3 3 2 349 343 
3 0 0 3 2 1 2 348 346 
8 0 0 3 3 5 1 344 
1 0 0 4 3 4 2 348 347 
10 0 0 2 5 2 2 348 347 
5 0 0 3 5 2 1 347 
5 0 0 3 3 5 1 350 
4 0 0 1 3 2 1 350 
2 0 0 1 1 2 1 350 
0 0 0 0 0 0 1 543 
0 0 0 0 0 0 6 352 353 354 355 356 370 
10 0 1 1 1 0 4 371 359 358 357 
1 0 5 3 1 0 5 371 365 363 358 357 
10 0 1 4 1 0 3 363 358 357 
10 0 2 2 3 0 3 367 359 357 
3 0 3 1 3 0 5 372 369 367 364 359 
5 0 3 2 2 0 3 364 361 360 
2 0 2 3 2 0 2 367 362 
1 0 1 2 3 0 2 365 363 
10 0 3 1 2 0 2 369 366 
9 0 3 4 1 0 2 369 366 
2 0 4 4 1 0 2 369 366 
2 0 1 4 5 0 1 366 
5 0 3 2 1 0 1 366 
8 0 5 3 2 0 1 366 
6 0 1 4 2 0 6 381 380 379 376 375 368 
6 0 1 3 3 0 2 379 368 
4 0 3 3 5 0 2 377 373 
1 0 3 1 1 0 3 380 379 377 
10 0 5 2 2 0 3 381 378 377 
3 0 3 4 2 0 2 379 378 
3 0 2 2 3 0 2 380 377 
8 0 1 1 4 0 1 374 
10 0 1 2 2 0 1 378 
1 0 3 2 2 0 1 377 
1 0 3 4 3 0 1 377 
9 0 2 1 4 0 1 382 
8 0 3 2 5 0 1 382 
2 0 1 3 3 0 1 382 
5 0 5 1 4 0 1 382 
8 0 1 4 2 0 1 382 
0 0 0 0 0 0 1 543 
0 0 0 0 0 0 5 384 386 387 388 392 
4 0 0 1 1 0 2 393 385 
6 0 0 5 2 0 4 403 396 394 389 
3 0 0 1 2 0 3 402 391 390 
10 0 0 3 2 0 3 395 394 393 
7 0 0 2 5 0 2 393 389 
3 0 0 3 1 0 4 401 400 398 395 
7 0 0 1 5 0 4 403 400 399 394 
9 0 0 2 2 0 4 400 399 396 394 
6 0 0 3 5 0 5 403 402 399 397 396 
7 0 0 2 1 0 3 400 397 396 
10 0 0 2 2 0 3 401 398 397 
4 0 0 4 3 0 3 402 399 397 
4 0 0 3 1 0 1 398 
9 0 0 1 2 0 1 404 
9 0 0 3 3 0 1 404 
10 0 0 4 3 0 1 404 
6 0 0 1 2 0 1 404 
4 0 0 2 3 0 1 404 
2 0 0 4 4 0 1 404 
3 0 0 3 1 0 1 404 
0 0 0 0 0 0 1 543 
0 0 0 0 0 0 5 406 407 408 409 410 
4 1 0 1 0 0 3 415 413 412 
2 2 0 2 0 0 2 412 411 
6 2 0 2 0 0 6 425 424 418 417 416 414 
4 3 0 4 0 0 2 418 411 
8 3 0 2 0 0 5 425 424 419 418 416 
6 1 0 3 0 0 4 425 424 416 414 
6 1 0 3 0 0 4 424 419 418 416 
6 5 0 3 0 0 4 424 419 418 416 
7 3 0 3 0 0 3 422 420 419 
6 2 0 4 0 0 3 425 422 419 
1 4 0 2 0 0 3 423 422 421 
10 2 0 3 0 0 2 423 419 
4 4 0 3 0 0 1 420 
7 4 0 2 0 0 1 421 
3 2 0 2 0 0 1 421 
5 2 0 2 0 0 1 426 
6 1 0 2 0 0 1 426 
1 1 0 4 0 0 1 426 
3 3 0 2 0 0 1 426 
9 4 0 1 0 0 1 426 
0 0 0 0 0 0 1 543 
0 0 0 0 0 0 6 428 430 432 436 446 447 
3 0 0 1 0 1 2 435 429 
4 0 0 3 0 3 4 445 443 438 431 
7 0 0 1 0 1 2 435 431 
1 0 0 2 0 2 3 444 439 434 
9 0 0 2 0 4 2 437 433 
1 0 0 1 0 5 3 443 440 438 
9 0 0 5 0 2 3 442 441 440 
6 0 0 3 0 2 1 437 
2 0 0 2 0 3 1 437 
9 0 0 3 0 1 1 439 
8 0 0 1 0 3 1 439 
8 0 0 5 0 2 1 448 
2 0 0 2 0 4 1 448 
5 0 0 3 0 3 1 448 
6 0 0 2 0 1 1 448 
7 0 0 3 0 2 1 448 
4 0 0 3 0 1 1 448 
10 0 0 3 0 2 1 448 
1 0 0 2 0 3 1 448 
6 0 0 3 0 5 1 448 
0 0 0 0 0 0 1 543 
0 0 0 0 0 0 8 450 453 456 457 466 467 468 469 
3 1 0 0 1 0 3 465 464 451 
9 5 0 0 1 0 2 463 452 
1 3 0 0 1 0 3 460 458 454 
5 4 0 0 2 0 2 458 455 
4 7 0 0 2 0 1 459 
1 3 0 0 4 0 1 462 
1 3 0 0 1 0 1 461 
4 2 0 0 3 0 1 461 
7 3 0 0 3 0 1 470 
7 1 0 0 3 0 1 470 
10 1 0 0 3 0 1 470 
9 3 0 0 1 0 1 470 
1 2 0 0 2 0 1 470 
2 1 0 0 3 0 1 470 
7 1 0 0 4 0 1 470 
5 2 0 0 2 0 1 470 
7 1 0 0 3 0 1 470 
4 2 0 0 6 0 1 470 
1 3 0 0 1 0 1 470 
10 2 0 0 4 0 1 470 
0 0 0 0 0 0 1 543 
0 0 0 0 0 0 4 472 473 474 475 
8 0 0 0 0 1 5 481 480 479 478 476 
4 0 0 0 0 1 3 480 479 476 
9 0 0 0 0 4 3 480 478 476 
6 0 0 0 0 1 3 479 478 477 
7 0 0 0 0 1 1 477 
5 0 0 0 0 2 1 482 
1 0 0 0 0 4 1 482 
5 0 0 0 0 5 1 482 
3 0 0 0 0 4 1 482 
1 0 0 0 0 2 1 482 
0 0 0 0 0 0 5 483 495 507 519 531 
0 0 0 0 0 0 3 484 485 493 
3 1 0 0 0 0 4 492 491 487 486 
9 3 0 0 0 0 1 486 
6 2 0 0 0 0 3 490 489 488 
7 1 0 0 0 0 1 488 
10 2 0 0 0 0 1 494 
6 2 0 0 0 0 1 494 
9 3 0 0 0 0 1 494 
10 4 0 0 0 0 1 494 
9 3 0 0 0 0 1 494 
9 4 0 0 0 0 1 494 
0 0 0 0 0 0 1 543 
0 0 0 0 0 0 5 496 497 499 500 505 
5 1 0 0 0 0 3 503 501 498 
7 2 0 0 0 0 3 504 503 501 
8 2 0 0 0 0 1 502 
4 3 0 0 0 0 1 502 
7 3 0 0 0 0 1 501 
10 3 0 0 0 0 1 506 
10 3 0 0 0 0 1 506 
6 2 0 0 0 0 1 506 
7 2 0 0 0 0 1 506 
6 4 0 0 0 0 1 506 
0 0 0 0 0 0 1 543 
0 0 0 0 0 0 4 508 509 516 517 
10 1 0 0 0 0 4 515 514 513 511 
8 2 0 0 0 0 3 515 512 510 
8 2 0 0 0 0 2 514 513 
8 2 0 0 0 0 1 512 
9 3 0 0 0 0 1 518 
2 3 0 0 0 0 1 518 
8 2 0 0 0 0 1 518 
1 2 0 0 0 0 1 518 
3 4 0 0 0 0 1 518 
10 4 0 0 0 0 1 518 
0 0 0 0 0 0 1 543 
0 0 0 0 0 0 5 520 522 527 528 529 
8 0 0 0 1 0 4 526 525 524 521 
6 0 0 0 2 0 1 523 
3 0 0 0 4 0 1 523 
3 0 0 0 4 0 1 530 
8 0 0 0 3 0 1 530 
3 0 0 0 3 0 1 530 
7 0 0 0 2 0 1 530 
4 0 0 0 2 0 1 530 
7 0 0 0 3 0 1 530 
10 0 0 0 1 0 1 530 
0 0 0 0 0 0 1 543 
0 0 0 0 0 0 5 532 533 535 540 541 
3 0 0 0 0 1 2 539 534 
7 0 0 0 0 3 2 538 536 
4 0 0 0 0 4 1 536 
7 0 0 0 0 2 1 537 
8 0 0 0 0 2 1 542 
6 0 0 0 0 1 1 542 
3 0 0 0 0 3 1 542 
6 0 0 0 0 6 1 542 
2 0 0 0 0 1 1 542 
9 0 0 0 0 2 1 542 
0 0 0 0 0 0 1 543 
0 0 0 0 0 0 0 
